\ENCODING=ISO-8859-1
\Problem name: IloCplex

Minimize
 obj1: Y_1 + Y_2 + Y_3 + Y_4 + Y_5 + Y_6 + Y_7 + Y_8 + Y_9 + Y_10 + Y_11 + Y_12
       + Y_13 + Y_14 + Y_15 + Y_16
Subject To
 c1:  Y_1 + Y_2 + Y_4 + Y_5 - X_1 - X_3 - X_5 - X_10 - X_15 - X_20 - X_25
      - X_30 - X_35 - X_40 - X_45 - X_50 - X_55 - X_60 >= 0
 c2:  - X_6 - X_11 - X_16 - X_21 - X_26 - X_31 - X_36 - X_41 - X_46 - X_51
      - X_56 - X_61 >= 0
 c3:  Y_6 + 6 Y_7 + 6 Y_13 + 6 Y_14 + 6 Y_15 + 6 Y_16 - X_7 - X_12 - X_17
      - X_22 - X_27 - X_32 - X_37 - X_42 - X_47 - X_52 - X_57 - X_62 >= 0
 c4:  Y_2 + 5 Y_3 + 2 Y_4 + 2 Y_5 + Y_8 + 5 Y_9 + 5 Y_10 + 5 Y_11 + 5 Y_12
      - X_4 - X_8 - X_13 - X_18 - X_23 - X_28 - X_33 - X_38 - X_43 - X_48
      - X_53 - X_58 - X_63 >= 0
 c5:  Y_1 + 3 Y_6 + 3 Y_8 - X_2 - X_9 - X_14 - X_19 - X_24 - X_29 - X_34 - X_39
      - X_44 - X_49 - X_54 - X_59 - X_64 >= 0
 c6:  2 X_1 + X_3 + 2 X_5 + 2 X_10 + 2 X_15 + 2 X_20 + 2 X_45 + X_50 + X_55
      + 2 X_6 + 2 X_11 + 2 X_16 + 2 X_21 + 2 X_46 + X_51 + X_56 + 2 X_7
      + 2 X_12 + 2 X_17 + 2 X_22 + 2 X_47 + X_52 + X_57 + 2 X_8 + 2 X_13
      + 2 X_18 + 2 X_23 + 2 X_48 + X_53 + X_58 + 2 X_9 + 2 X_14 + 2 X_19
      + 2 X_24 + 2 X_49 + X_54 + X_59 >= 3
 c7:  X_3 + 4 X_35 + 2 X_50 + 4 X_36 + 2 X_51 + 4 X_37 + 2 X_52 + 4 X_38
      + 2 X_53 + 3 X_2 + 4 X_39 + 2 X_54 >= 4
 c8:  6 X_40 + X_50 + 4 X_55 + 6 X_41 + X_51 + 4 X_56 + 6 X_42 + X_52 + 4 X_57
      + 4 X_4 + 6 X_43 + X_53 + 4 X_58 + 6 X_44 + X_54 + 4 X_59 >= 4
 c9:  2 X_3 + X_5 + X_10 + X_15 + X_20 + 5 X_30 + X_45 + 2 X_60 + X_6 + X_11
      + X_16 + X_21 + 5 X_31 + X_46 + 2 X_61 + X_7 + X_12 + X_17 + X_22
      + 5 X_32 + X_47 + 2 X_62 + X_4 + X_8 + X_13 + X_18 + X_23 + 5 X_33 + X_48
      + 2 X_63 + X_9 + X_14 + X_19 + X_24 + 5 X_34 + X_49 + 2 X_64 >= 3
 c10: 3 X_1 + 12 X_25 + X_30 + X_45 + 8 X_60 + 12 X_26 + X_31 + X_46 + 8 X_61
      + 12 X_27 + X_32 + X_47 + 8 X_62 + 12 X_28 + X_33 + X_48 + 8 X_63 + 3 X_2
      + 12 X_29 + X_34 + X_49 + 8 X_64 >= 6
End
